c User generated cnf file
p cnf 8 20
6 6 -5 0 
8 -8 6 0 
-4 5 1 0 
-7 8 1 0 
2 -3 3 0 
2 1 -4 0 
-8 6 7 0 
2 -2 3 0 
6 4 -4 0 
6 5 -4 0 
-3 5 7 0 
1 5 -2 0 
2 -1 3 0 
-2 7 5 0 
6 -6 5 0 
-7 6 4 0 
4 8 -6 0 
3 6 -8 0 
8 -6 5 0 
4 3 -5 0 
